language Essence 1.3

letting bot_end be [80, 28, 94, 137, 35, 76, 86, 89, 104, 95, 122, 18, 92, 37, 45; int(1..15)]
letting bot_start be [49, 31, 123, 1, 27, 117, 73, 134, 122, 84, 42, 6, 40, 0, 77; int(1..15)]
letting bots be 15
letting buffer_col be 2
letting buffer_row be 2
letting corridor_size be 1
letting n_shelves_col be 7
letting n_shelves_row be 1
letting shelf_col_size be 2
letting shelf_row_size be 1
